     Program PWSCF v.6.1 (svn rev. 13369) starts on 20Sep2018 at 13:33:24

     Current dimensions of program PWSCF are:
     Max number of different atomic species (ntypx) = 10
     Max number of k-points (npk) =  40000
     Max angular momentum in pseudopotentials (lmaxx) =  3
               file C.pbe-n-kjpaw_psl.0.1.UPF: wavefunction(s)  2P renormalized

     Found symmetry operation: I + ( -0.5000 -0.5000  0.0000)
     This is a supercell, fractional translations are disabled

     bravais-lattice index     =            8
     lattice parameter (alat)  =       5.0000  a.u.
     unit-cell volume          =    1125.0000 (a.u.)^3
     number of atoms/cell      =            4
     number of atomic types    =            1
     number of electrons       =        16.00
     number of Kohn-Sham states=           12
     kinetic-energy cutoff     =      45.0000  Ry
     charge density cutoff     =     180.0000  Ry
     convergence threshold     =      1.0E-08
     mixing beta               =       0.0500
     number of iterations used =            8  plain     mixing
     Exchange-correlation      =  SLA  PW   PBX  PBC ( 1  4  3  4 0 0)
     nstep                     =         1000

     celldm(1)=   5.000000  celldm(2)=   1.500000  celldm(3)=   6.000000
     celldm(4)=   0.000000  celldm(5)=   0.000000  celldm(6)=   0.000000

     crystal axes: (cart. coord. in units of alat)
               a(1) = (   1.000000   0.000000   0.000000 )
               a(2) = (   0.000000   1.500000   0.000000 )
               a(3) = (   0.000000   0.000000   6.000000 )

     reciprocal axes: (cart. coord. in units 2 pi/alat)
               b(1) = (  1.000000  0.000000  0.000000 )
               b(2) = (  0.000000  0.666667  0.000000 )
               b(3) = (  0.000000  0.000000  0.166667 )

     PseudoPot. # 1 for  C read from file:
     ../C.pbe-n-kjpaw_psl.0.1.UPF
     MD5 check sum: 430fe95172b1e11ef3f8ed03bac87931
     Pseudo is Projector augmented-wave + core cor, Zval =  4.0
     Generated using "atomic" code by A. Dal Corso  v.5.0.99 svn rev. 10869
     Shape of augmentation charge: BESSEL
     Using radial grid of 1073 points,  4 beta functions with:
                l(1) =   0
                l(2) =   0
                l(3) =   1
                l(4) =   1
     Q(r) pseudized with 0 coefficients

     atomic species   valence    mass     pseudopotential
        C              4.00    12.01070      C( 1.00)

      4 Sym. Ops. (no inversion) found

                                    s                        frac. trans.

      isym =  1     identity

 cryst.   s( 1) = (     1          0          0      )
                  (     0          1          0      )
                  (     0          0          1      )

 cart.    s( 1) = (  1.0000000  0.0000000  0.0000000 )
                  (  0.0000000  1.0000000  0.0000000 )
                  (  0.0000000  0.0000000  1.0000000 )

      isym =  2     180 deg rotation - cart. axis [0,1,0]

[...]

      isym =  3     inv. 180 deg rotation - cart. axis [0,0,1]

[...]

     point group C_2v (mm2)
     there are  4 classes
     the character table:

       E     C2    s_v   s_v'
A_1    1.00  1.00  1.00  1.00
A_2    1.00  1.00 -1.00 -1.00
B_1    1.00 -1.00  1.00 -1.00
B_2    1.00 -1.00 -1.00  1.00

     the symmetry operations in each class and the name of the first element:

     E        1
          identity
     C2       2
          180 deg rotation - cart. axis [0,1,0]
     s_v      3
          inv. 180 deg rotation - cart. axis [0,0,1]
     s_v'     4
          inv. 180 deg rotation - cart. axis [1,0,0]

   Cartesian axes

     site n.     atom                  positions (alat units)
         1           C   tau(   1) = (   0.0000000   0.6251115   0.0000000  )
         2           C   tau(   2) = (   0.5000000   0.8748885   0.0000000  )
         3           C   tau(   3) = (   0.5000000   1.3751115   0.0000000  )
         4           C   tau(   4) = (   0.0000000   0.1248885   0.0000000  )

   Crystallographic axes

     site n.     atom                  positions (cryst. coord.)
         1           C   tau(   1) = (  0.0000000  0.4167410  0.0000000  )
         2           C   tau(   2) = (  0.5000000  0.5832590  0.0000000  )
         3           C   tau(   3) = (  0.5000000  0.9167410  0.0000000  )
         4           C   tau(   4) = (  0.0000000  0.0832590  0.0000000  )

     number of k points=     2  gaussian smearing, width (Ry)=  0.0010
                       cart. coord. in units 2pi/alat
        k(    1) = (   0.2500000   0.0833333  -0.0833333), wk =   1.0000000
        k(    2) = (   0.2500000   0.2500000  -0.0833333), wk =   1.0000000

                       cryst. coord.
        k(    1) = (   0.2500000   0.1250000  -0.5000000), wk =   1.0000000
        k(    2) = (   0.2500000   0.3750000  -0.5000000), wk =   1.0000000

     Check: negative/imaginary core charge=   -0.000009    0.000000

     Initial potential from superposition of free atoms
     Check: negative starting charge=   -0.000272

     starting charge   15.99983, renormalised to   16.00000

     negative rho (up, down):  2.723E-04 0.000E+00
     Starting wfc are   16 randomized atomic wfcs
     Checking if some PAW data can be deallocated...

     Self-consistent Calculation

     iteration #  1     ecut=    45.00 Ry     beta=0.05
     Davidson diagonalization with overlap
     ethr =  1.00E-02,  avg # of iterations =  5.5

     negative rho (up, down):  2.407E-04 0.000E+00

     total energy              =     -73.89097664 Ry
     Harris-Foulkes estimate   =     -73.91747666 Ry
     estimated scf accuracy    <       0.39043263 Ry

[...]

     End of self-consistent calculation

          k = 0.2500 0.0833-0.0833 (  5732 PWs)   bands (ev):

   -20.4606 -15.9120 -13.4225 -11.6061  -8.6052  -8.3184  -6.7081  -3.0606
    -0.4849   2.6868   3.0109   4.0955

     occupation numbers
     1.0000   1.0000   1.0000   1.0000   1.0000   1.0000   1.0000   1.0000
     0.0000   0.0000   0.0000   0.0000

[...]

     the Fermi energy is    -1.8753 ev

!    total energy              =     -73.75187179 Ry
     Harris-Foulkes estimate   =     -73.75187179 Ry
     estimated scf accuracy    <          8.3E-09 Ry

     total all-electron energy =      -304.808277 Ry

     The total energy is the sum of the following terms:

     one-electron contribution =    -338.09929244 Ry
     hartree contribution      =     172.14959750 Ry
     xc contribution           =     -16.58173572 Ry
     ewald contribution        =     135.40519336 Ry
     one-center paw contrib.   =     -26.62563448 Ry
      -> PAW hartree energy AE =      11.17375875 Ry
      -> PAW hartree energy PS =     -11.15861478 Ry
      -> PAW xc energy AE      =     -11.00225678 Ry
      -> PAW xc energy PS      =       4.33070439 Ry
      -> total E_H with PAW    =     172.16474147 Ry
      -> total E_XC with PAW   =     -23.25328812 Ry
     smearing contrib. (-TS)   =      -0.00000000 Ry

     convergence has been achieved in  42 iterations

[...]

     Forces acting on atoms (cartesian axes, Ry/au):

     atom    1 type  1   force =     0.00000000    0.10202998    0.00000000
     atom    2 type  1   force =     0.00000000   -0.10198820    0.00000000
     atom    3 type  1   force =     0.00000000    0.10199461    0.00000000
     atom    4 type  1   force =     0.00000000   -0.10203640    0.00000000
     The non-local contrib.  to forces
     atom    1 type  1   force =     0.00000000    0.21070169    0.00000000
     atom    2 type  1   force =     0.00000000   -0.21068126    0.00000000
     atom    3 type  1   force =     0.00000000    0.21066744    0.00000000
     atom    4 type  1   force =     0.00000000   -0.21070715    0.00000000
     The ionic contribution  to forces
     atom    1 type  1   force =     0.00000000    1.24430867   -0.00000000
     atom    2 type  1   force =    -0.00000000   -1.24430867    0.00000000
     atom    3 type  1   force =     0.00000000    1.24430867   -0.00000000
     atom    4 type  1   force =    -0.00000000   -1.24430867    0.00000000
     The local contribution  to forces
     atom    1 type  1   force =    -0.00000000   -1.34296178    0.00000000
     atom    2 type  1   force =     0.00000000    1.34300316    0.00000000
     atom    3 type  1   force =    -0.00000000   -1.34299305    0.00000000
     atom    4 type  1   force =    -0.00000000    1.34296860    0.00000000
     The core correction contribution to forces
     atom    1 type  1   force =     0.00000000   -0.01004024    0.00000000
     atom    2 type  1   force =     0.00000000    0.01003970    0.00000000
     atom    3 type  1   force =     0.00000000   -0.01003936    0.00000000
     atom    4 type  1   force =     0.00000000    0.01004028    0.00000000
     The Hubbard contrib.    to forces
     atom    1 type  1   force =     0.00000000    0.00000000    0.00000000
     atom    2 type  1   force =     0.00000000    0.00000000    0.00000000
     atom    3 type  1   force =     0.00000000    0.00000000    0.00000000
     atom    4 type  1   force =     0.00000000    0.00000000    0.00000000
     The SCF correction term to forces
     atom    1 type  1   force =     0.00000000    0.00002198    0.00000000
     atom    2 type  1   force =    -0.00000000   -0.00004079    0.00000000
     atom    3 type  1   force =     0.00000000    0.00005125    0.00000000
     atom    4 type  1   force =    -0.00000000   -0.00002912    0.00000000

     Total force =     0.204025     Total SCF correction =     0.000075

     Computing stress (Cartesian axis) and pressure

     negative rho (up, down):  1.351E-04 0.000E+00
          total   stress  (Ry/bohr**3)                   (kbar)     P=   10.90
  -0.00102669   0.00000000   0.00000000       -151.03      0.00      0.00
   0.00000000   0.00125034   0.00000000          0.00    183.93      0.00
   0.00000000   0.00000000  -0.00000145          0.00      0.00     -0.21

     kinetic stress (kbar)   2241.14      0.00      0.00
                                0.00   2545.27      0.00
                                0.00      0.00   2745.65

     local   stress (kbar) -47561.05      0.00      0.00
                                0.00 -48011.96      0.00
                                0.00      0.00  47225.90

     nonloc. stress (kbar)    850.09      0.00      0.00
                                0.00    881.20      0.00
                                0.00      0.00    783.22

     hartree stress (kbar)  22261.66      0.00     -0.00
                                0.00  22319.80     -0.00
                               -0.00     -0.00 -22071.17

     exc-cor stress (kbar)   -281.10     -0.00     -0.00
                               -0.00   -280.09      0.00
                               -0.00      0.00   -306.87

     corecor stress (kbar)   -337.76      0.00      0.00
                                0.00   -343.48     -0.00
                                0.00     -0.00   -333.35

     ewald   stress (kbar)  22675.98     -0.00     -0.00
                               -0.00  23073.20     -0.00
                               -0.00     -0.00 -28043.59

     hubbard stress (kbar)      0.00      0.00      0.00
[...]

     london  stress (kbar)      0.00      0.00      0.00
                                0.00      0.00      0.00
                                0.00      0.00      0.00

     XDM     stress (kbar)      0.00      0.00      0.00
                                0.00      0.00      0.00
                                0.00      0.00      0.00

     dft-nl  stress (kbar)      0.00      0.00      0.00
                                0.00      0.00      0.00
                                0.00      0.00      0.00

     TS-vdW  stress (kbar)      0.00      0.00      0.00
                                0.00      0.00      0.00
                                0.00      0.00      0.00

     BFGS Geometry Optimization

     number of scf cycles    =   1
     number of bfgs steps    =   0

     enthalpy new            =     -73.7518717914 Ry

     new trust radius        =       0.2096887007 bohr
     new conv_thr            =       0.0000000100 Ry

     new unit-cell volume =   1130.38765 a.u.^3 (   167.50617 Ang^3 )
     density =      0.47626 g/cm^3

CELL_PARAMETERS (alat=  5.00000000)
   0.974332794   0.000000000   0.000000000
   0.000000000   1.546887819   0.000000000
   0.000000000   0.000000000   6.000000000

ATOMIC_POSITIONS (crystal)
C        0.000000000   0.430344998   0.000000000
C        0.500000000   0.569660574   0.000000000
C        0.500000000   0.930340282   0.000000000
C        0.000000000   0.069654147   0.000000000

     Writing output data file pwscf.save
     Check: negative starting charge=   -0.000272
     NEW-OLD atomic charge density approx. for the potential

     Check: negative/imaginary core charge=   -0.000010    0.000000
     Check: negative starting charge=   -0.000271

     negative rho (up, down):  3.544E-04 0.000E+00
     extrapolated charge   16.07626, renormalised to   16.00000

[...]

     enthalpy old            =     -73.7518717914 Ry
     enthalpy new            =     -73.8013490656 Ry

     CASE: enthalpy_new < enthalpy_old

[...]

     Threshold (ethr) on eigenvalues was too large:
     Diagonalizing with lowered threshold

     Davidson diagonalization with overlap
     ethr =  3.52E-08,  avg # of iterations =  3.0

[...]

     Total force =     0.000122     Total SCF correction =     0.000016
     SCF correction compared to forces is large: reduce conv_thr to get better values

[...]

     small trust_radius: resetting bfgs history

[...]

     number of scf cycles    =  10
     number of bfgs steps    =   9

     enthalpy old            =     -73.8809382040 Ry
     enthalpy new            =     -73.8809382045 Ry

     CASE: enthalpy_new < enthalpy_old

     Message from routine bfgs:
     history already reset at previous step: stopping
     small trust_radius: resetting bfgs history

     new trust radius        =       0.0001000000 bohr
     new conv_thr            =            1.0E-10 Ry

     new unit-cell volume =   1117.52420 a.u.^3 (   165.60000 Ang^3 )
     density =      0.48174 g/cm^3

[...]

ATOMIC_POSITIONS (crystal)
C        0.000000000   0.417887723   0.000000000
C        0.500000000   0.582113029   0.000000000
C        0.500000000   0.917881921   0.000000000
C        0.000000000   0.082117327   0.000000000

     Writing output data file pwscf.save
     Check: negative starting charge=   -0.000329
     NEW-OLD atomic charge density approx. for the potential

     Check: negative/imaginary core charge=   -0.000010    0.000000
     Check: negative starting charge=   -0.000329

     negative rho (up, down):  9.610E-05 0.000E+00
     extrapolated charge   15.99994, renormalised to   16.00000

[...]

     Threshold (ethr) on eigenvalues was too large:
     Diagonalizing with lowered threshold

     Davidson diagonalization with overlap
     ethr =  6.80E-12,  avg # of iterations =  5.0

[...]

     Total force =     0.000147     Total SCF correction =     0.000019
     SCF correction compared to forces is large: reduce conv_thr to get better values

[...]

     bfgs converged in  11 scf cycles and  10 bfgs steps
     (criteria: energy <  1.0E-06 Ry, force <  1.0E-05Ry/Bohr, cell <  5.0E-01kbar)

     End of BFGS Geometry Optimization

     Final enthalpy =     -73.8809382038 Ry
Begin final coordinates
     new unit-cell volume =   1117.52420 a.u.^3 (   165.60000 Ang^3 )
     density =      0.48174 g/cm^3

CELL_PARAMETERS (alat=  5.00000000)
   0.905686843   0.000000000   0.000000000
   0.000000000   1.645195890   0.000000000
   0.000000000   0.000000000   6.000000000

ATOMIC_POSITIONS (crystal)
C        0.000000000   0.417887723   0.000000000
C        0.500000000   0.582113029   0.000000000
C        0.500000000   0.917881921   0.000000000
C        0.000000000   0.082117327   0.000000000
End final coordinates

     A final scf calculation at the relaxed structure.
     The G-vectors are recalculated for the final unit cell
     Results may differ from those at the preceding step.

     bravais-lattice index     =            8
     lattice parameter (alat)  =       5.0000  a.u.
     unit-cell volume          =    1117.5242 (a.u.)^3
     number of atoms/cell      =            4
     number of atomic types    =            1
     number of electrons       =        16.00
     number of Kohn-Sham states=           12
     kinetic-energy cutoff     =      45.0000  Ry
     charge density cutoff     =     180.0000  Ry
     convergence threshold     =      1.0E-10
     mixing beta               =       0.0500
     number of iterations used =            8  plain     mixing
     Exchange-correlation      =  SLA  PW   PBX  PBC ( 1  4  3  4 0 0)

     celldm(1)=   5.000000  celldm(2)=   1.500000  celldm(3)=   6.000000
     celldm(4)=   0.000000  celldm(5)=   0.000000  celldm(6)=   0.000000

     crystal axes: (cart. coord. in units of alat)
               a(1) = (   0.905687   0.000000   0.000000 )
               a(2) = (   0.000000   1.645196   0.000000 )
               a(3) = (   0.000000   0.000000   6.000000 )

     reciprocal axes: (cart. coord. in units 2 pi/alat)
               b(1) = (  1.104134  0.000000  0.000000 )
               b(2) = (  0.000000  0.607830  0.000000 )
               b(3) = (  0.000000  0.000000  0.166667 )

     PseudoPot. # 1 for  C read from file:
     ../C.pbe-n-kjpaw_psl.0.1.UPF
     MD5 check sum: 430fe95172b1e11ef3f8ed03bac87931
     Pseudo is Projector augmented-wave + core cor, Zval =  4.0
     Generated using "atomic" code by A. Dal Corso  v.5.0.99 svn rev. 10869
     Shape of augmentation charge: BESSEL
     Using radial grid of 1073 points,  4 beta functions with:
                l(1) =   0
                l(2) =   0
                l(3) =   1
                l(4) =   1
     Q(r) pseudized with 0 coefficients

     atomic species   valence    mass     pseudopotential
        C              4.00    12.01070      C( 1.00)

      4 Sym. Ops. (no inversion) found

                                    s                        frac. trans.

      isym =  1     identity

[...]

      isym =  2     180 deg rotation - cart. axis [0,1,0]

[...]

      isym =  4     inv. 180 deg rotation - cart. axis [1,0,0]

 cryst.   s( 4) = (    -1          0          0      )
                  (     0          1          0      )
                  (     0          0          1      )

 cart.    s( 4) = ( -1.0000000  0.0000000  0.0000000 )
                  (  0.0000000  1.0000000  0.0000000 )
                  (  0.0000000  0.0000000  1.0000000 )

     point group C_2v (mm2)
     there are  4 classes
     the character table:

       E     C2    s_v   s_v'
A_1    1.00  1.00  1.00  1.00
A_2    1.00  1.00 -1.00 -1.00
B_1    1.00 -1.00  1.00 -1.00
B_2    1.00 -1.00 -1.00  1.00

     the symmetry operations in each class and the name of the first element:

     E        1
          identity
     C2       2
          180 deg rotation - cart. axis [0,1,0]
     s_v      3
          inv. 180 deg rotation - cart. axis [0,0,1]
     s_v'     4
          inv. 180 deg rotation - cart. axis [1,0,0]

   Cartesian axes

     site n.     atom                  positions (alat units)
         1           C   tau(   1) = (   0.0000000   0.6875072   0.0000000  )
         2           C   tau(   2) = (   0.4528434   0.9576900   0.0000000  )
         3           C   tau(   3) = (   0.4528434   1.5100956   0.0000000  )
         4           C   tau(   4) = (   0.0000000   0.1350991   0.0000000  )

   Crystallographic axes

     site n.     atom                  positions (cryst. coord.)
         1           C   tau(   1) = (  0.0000000  0.4178877  0.0000000  )
         2           C   tau(   2) = (  0.5000000  0.5821130  0.0000000  )
         3           C   tau(   3) = (  0.5000000  0.9178819  0.0000000  )
         4           C   tau(   4) = (  0.0000000  0.0821173  0.0000000  )

     number of k points=     2  gaussian smearing, width (Ry)=  0.0010
                       cart. coord. in units 2pi/alat
        k(    1) = (   0.2760336   0.0759788  -0.0833333), wk =   1.0000000
        k(    2) = (   0.2760336   0.2279364  -0.0833333), wk =   1.0000000

                       cryst. coord.
        k(    1) = (   0.2500000   0.1250000  -0.5000000), wk =   1.0000000
        k(    2) = (   0.2500000   0.3750000  -0.5000000), wk =   1.0000000

     Check: negative/imaginary core charge=   -0.000010    0.000000

     Initial potential from superposition of free atoms
     Check: negative starting charge=   -0.000268

     starting charge   15.99983, renormalised to   16.00000

     negative rho (up, down):  2.681E-04 0.000E+00
     Starting wfc are   16 randomized atomic wfcs
     Checking if some PAW data can be deallocated...

     Writing output data file pwscf.save

     Self-consistent Calculation

     iteration #  1     ecut=    45.00 Ry     beta=0.05
     Davidson diagonalization with overlap
     c_bands:  1 eigenvalues not converged
     ethr =  1.00E-06,  avg # of iterations = 20.0

[...]

     total energy              =     -73.88089830 Ry
     Harris-Foulkes estimate   =     -73.88089830 Ry
     estimated scf accuracy    <          6.7E-10 Ry

     iteration # 52     ecut=    45.00 Ry     beta=0.05
     Davidson diagonalization with overlap
     ethr =  4.16E-12,  avg # of iterations =  1.0

[...]

     End of self-consistent calculation

[...]

          k = 0.2760 0.2279-0.0833 (  5702 PWs)   bands (ev):

   -19.6103 -18.2558 -11.4201 -10.0961  -9.9935  -7.8586  -7.3012  -5.7715
     2.3030   3.9239   4.2668   4.5700

     occupation numbers
     1.0000   1.0000   1.0000   1.0000   1.0000   1.0000   1.0000   1.0000
     0.0000   0.0000   0.0000   0.0000

     the Fermi energy is    -1.6348 ev

!    total energy              =     -73.88089830 Ry
     Harris-Foulkes estimate   =     -73.88089830 Ry
     estimated scf accuracy    <          5.8E-11 Ry

     total all-electron energy =      -304.937304 Ry

     The total energy is the sum of the following terms:

     one-electron contribution =    -340.38598188 Ry
     hartree contribution      =     173.22785445 Ry
     xc contribution           =     -16.59657812 Ry
     ewald contribution        =     136.49926008 Ry
     one-center paw contrib.   =     -26.62545284 Ry
      -> PAW hartree energy AE =      11.22389741 Ry
      -> PAW hartree energy PS =     -11.20872861 Ry
      -> PAW xc energy AE      =     -11.01247943 Ry
      -> PAW xc energy PS      =       4.34094681 Ry
      -> total E_H with PAW    =     173.24302325 Ry
      -> total E_XC with PAW   =     -23.26811074 Ry
     smearing contrib. (-TS)   =      -0.00000000 Ry

     convergence has been achieved in  52 iterations

     negative rho (up, down):  8.581E-05 0.000E+00

     Forces acting on atoms (cartesian axes, Ry/au):

     atom    1 type  1   force =     0.00000000   -0.00009883    0.00000000
     atom    2 type  1   force =     0.00000000    0.00009772    0.00000000
     atom    3 type  1   force =     0.00000000   -0.00001808    0.00000000
     atom    4 type  1   force =     0.00000000    0.00001919    0.00000000
     The non-local contrib.  to forces
     atom    1 type  1   force =     0.00000000   -0.14909023    0.00000000
     atom    2 type  1   force =     0.00000000    0.14907505    0.00000000
     atom    3 type  1   force =     0.00000000   -0.14900938    0.00000000
     atom    4 type  1   force =     0.00000000    0.14902162    0.00000000
     The ionic contribution  to forces
     atom    1 type  1   force =    -0.00000000   -0.47861791   -0.00000000
     atom    2 type  1   force =     0.00000000    0.47854884   -0.00000000
     atom    3 type  1   force =     0.00000000   -0.47841796    0.00000000
     atom    4 type  1   force =    -0.00000000    0.47848703    0.00000000
     The local contribution  to forces
     atom    1 type  1   force =    -0.00000000    0.62215652    0.00000000
     atom    2 type  1   force =     0.00000000   -0.62207877    0.00000000
     atom    3 type  1   force =     0.00000000    0.62195849    0.00000000
     atom    4 type  1   force =     0.00000000   -0.62203281    0.00000000
     The core correction contribution to forces
     atom    1 type  1   force =    -0.00000000    0.00545288    0.00000000
     atom    2 type  1   force =    -0.00000000   -0.00545238    0.00000000
     atom    3 type  1   force =    -0.00000000    0.00545089    0.00000000
     atom    4 type  1   force =    -0.00000000   -0.00545132    0.00000000
     The Hubbard contrib.    to forces
     atom    1 type  1   force =     0.00000000    0.00000000    0.00000000
     atom    2 type  1   force =     0.00000000    0.00000000    0.00000000
     atom    3 type  1   force =     0.00000000    0.00000000    0.00000000
     atom    4 type  1   force =     0.00000000    0.00000000    0.00000000
     The SCF correction term to forces
     atom    1 type  1   force =     0.00000000    0.00000023   -0.00000000
     atom    2 type  1   force =    -0.00000000    0.00000529   -0.00000000
     atom    3 type  1   force =     0.00000000    0.00000019   -0.00000000
     atom    4 type  1   force =    -0.00000000   -0.00000503   -0.00000000

     Total force =     0.000141     Total SCF correction =     0.000007

     Computing stress (Cartesian axis) and pressure

     negative rho (up, down):  8.581E-05 0.000E+00
          total   stress  (Ry/bohr**3)                   (kbar)     P=    0.03
   0.00000125   0.00000000   0.00000000          0.18      0.00      0.00
   0.00000000   0.00000126   0.00000000          0.00      0.19      0.00
   0.00000000   0.00000000  -0.00000182          0.00      0.00     -0.27

     kinetic stress (kbar)   2376.49      0.00      0.00
                                0.00   2419.25      0.00
                                0.00      0.00   2761.36

     local   stress (kbar) -48530.39     -0.00     -0.00
                               -0.00 -48318.82      0.00
                               -0.00      0.00  47890.72

     nonloc. stress (kbar)    863.89      0.00      0.00
                                0.00    876.91      0.00
                                0.00      0.00    786.73

     hartree stress (kbar)  22615.24      0.00      0.00
                                0.00  22561.65      0.00
                                0.00      0.00 -22374.07

     exc-cor stress (kbar)   -282.82      0.00      0.00
                                0.00   -283.58      0.00
                                0.00      0.00   -309.78

     corecor stress (kbar)   -342.81      0.00      0.00
                                0.00   -342.74     -0.00
                                0.00     -0.00   -335.17

     ewald   stress (kbar)  23300.59     -0.00      0.00
                               -0.00  23087.51      0.00
                                0.00      0.00 -28420.05

     hubbard stress (kbar)      0.00      0.00      0.00
                                0.00      0.00      0.00
                                0.00      0.00      0.00

     london  stress (kbar)      0.00      0.00      0.00
                                0.00      0.00      0.00
                                0.00      0.00      0.00

     XDM     stress (kbar)      0.00      0.00      0.00
                                0.00      0.00      0.00
                                0.00      0.00      0.00

     dft-nl  stress (kbar)      0.00      0.00      0.00
                                0.00      0.00      0.00
                                0.00      0.00      0.00

     TS-vdW  stress (kbar)      0.00      0.00      0.00
                                0.00      0.00      0.00
                                0.00      0.00      0.00

     Writing output data file pwscf.save

     General routines

     Parallel routines

     PAW routines

   This run was terminated on:  13:33:43  20Sep2018

   JOB DONE.